(declare-fun var0 () String)
(assert (str.in.re var0 (re.++ (re.union (re.+ (str.to.re "eee")) (re.union (str.to.re "f") (str.to.re "g"))) (re.++ (re.+ (re.* (str.to.re "dd"))) (re.++ (re.* (re.union (str.to.re "bbb") (str.to.re "ccc"))) (re.++ (re.union (re.* (str.to.re "99")) (re.* (str.to.re "aaa"))) (re.++ (re.union (re.+ (str.to.re "77")) (re.* (str.to.re "8"))) (re.++ (re.union (re.+ (str.to.re "555")) (re.* (str.to.re "6"))) (re.++ (re.* (re.+ (str.to.re "44"))) (re.++ (re.* (re.* (str.to.re "3"))) (re.++ (re.union (re.+ (str.to.re "111")) (re.* (str.to.re "2"))) (re.+ (re.+ (str.to.re "0"))))))))))))))
(assert (str.in.re var0 (re.++ (re.+ (re.union (str.to.re "i") (str.to.re "j"))) (re.++ (re.+ (re.* (str.to.re "h"))) (re.++ (re.union (re.* (str.to.re "ff")) (re.+ (str.to.re "gg"))) (re.++ (re.* (re.union (str.to.re "dd") (str.to.re "eee"))) (re.++ (re.* (re.union (str.to.re "bb") (str.to.re "ccc"))) (re.++ (re.* (re.union (str.to.re "999") (str.to.re "a"))) (re.++ (re.* (re.* (str.to.re "888"))) (re.++ (re.union (re.union (str.to.re "44") (str.to.re "555")) (re.union (str.to.re "6") (str.to.re "777"))) (re.++ (re.union (re.+ (str.to.re "22")) (re.+ (str.to.re "333"))) (re.+ (re.union (str.to.re "00") (str.to.re "11"))))))))))))))
(check-sat)